
Gurobi 9.5.0 (linux64, gurobi_cl) logging started Thu Nov 10 18:09:51 2022

Set parameter Username
Set parameter TimeLimit to value 4
Set parameter MIPGap to value 0.004
Set parameter LogFile to value "gurobi.log"
Academic license - for non-commercial use only - expires 2023-09-22
Using license file /home/ali/gurobi.lic

Gurobi Optimizer version 9.5.0 build v9.5.0rc5 (linux64)
Copyright (c) 2021, Gurobi Optimization, LLC

Read LP format model from file /tmp/dc8afaa5a15a412997b82e8206b5941d-pulp.lp
Reading time = 0.00 seconds
OBJ: 401 rows, 198 columns, 1127 nonzeros

Read input file '/tmp/dc8afaa5a15a412997b82e8206b5941d-pulp.mst'

Thread count: 4 physical cores, 8 logical processors, using up to 8 threads
Optimize a model with 401 rows, 198 columns and 1127 nonzeros
Model fingerprint: 0xd1729e57
Variable types: 0 continuous, 198 integer (165 binary)
Coefficient statistics:
  Matrix range     [1e+00, 1e+04]
  Objective range  [1e+00, 1e+00]
  Bounds range     [1e+00, 3e+00]
  RHS range        [2e+00, 1e+04]

User MIP start produced solution with objective 84 (0.01s)
Loaded user MIP start with objective 84

Presolve removed 60 rows and 32 columns
Presolve time: 0.00s
Presolved: 341 rows, 166 columns, 950 nonzeros
Variable types: 0 continuous, 166 integer (134 binary)

Root relaxation: objective 6.200000e+01, 59 iterations, 0.00 seconds (0.00 work units)

    Nodes    |    Current Node    |     Objective Bounds      |     Work
 Expl Unexpl |  Obj  Depth IntInf | Incumbent    BestBd   Gap | It/Node Time

     0     0   62.00000    0   10   84.00000   62.00000  26.2%     -    0s
H    0     0                      78.0000000   62.00000  20.5%     -    0s
H    0     0                      77.0000000   62.00000  19.5%     -    0s
     0     0   62.00000    0   18   77.00000   62.00000  19.5%     -    0s
H    0     0                      76.0000000   62.00000  18.4%     -    0s
     0     0   62.00000    0   22   76.00000   62.00000  18.4%     -    0s
